
Value of objective function: 0

Actual values of the variables:
pL1_div_from_law                0
comp_pos0                       0
comp_neg0                       0
comp_pos1                       0
comp_neg1                       0
comp_pos2                       0
comp_neg2                       0
comp_pos3                       0
comp_neg3                       0
comp_pos4                       0
comp_neg4                       0
comp_pos5                       0
comp_neg5                       0
comp_pos6                       0
comp_neg6                       0
comp_pos7                       0
comp_neg7                       0
comp_pos8                       0
comp_neg8                       0
comp_pos9                       0
comp_neg9                       0
comp_pos10                      0
comp_neg10                      0
comp_pos11                      0
comp_neg11                      0
comp_pos12                      0
comp_neg12                      0
comp_pos13                      0
comp_neg13                      0
z_c0_t0               1.32138e+10
p0_c0_t0              5.07328e+09
p1_c0_t0              1.05272e+08
p2_c0_t0              7.53928e+09
p3_c0_t0                 4.96e+08
diff0                           0
normdiff0                       0
z_c0_t1               1.47752e+10
p0_c0_t1              4.36432e+09
p1_c0_t1              1.18054e+08
p2_c0_t1              7.92844e+09
p3_c0_t1              2.36438e+09
diff1                           0
normdiff1                       0
z_c1_t0               1.65566e+10
p0_c1_t0              5.07866e+09
p1_c1_t0              1.36618e+08
p2_c1_t0              1.09457e+10
p3_c1_t0              3.95581e+08
diff2                           0
normdiff2                       0
z_c1_t1               1.94959e+10
p0_c1_t1              5.16894e+09
p1_c1_t1              1.94357e+08
p2_c1_t1               1.3288e+10
p3_c1_t1              8.44611e+08
diff3                           0
normdiff3                       0
z_c2_t0               7.24754e+09
p0_c2_t0              1.75011e+09
p1_c2_t0              5.57491e+07
p2_c2_t0              5.24955e+09
p3_c2_t0              1.92135e+08
diff4                           0
normdiff4                       0
z_c2_t1               7.97123e+09
p0_c2_t1              1.42058e+09
p1_c2_t1              6.51635e+07
p2_c2_t1              5.91295e+09
p3_c2_t1              5.72534e+08
diff5                           0
normdiff5                       0
z_c3_t0               1.22612e+10
p0_c3_t0              3.13502e+09
p1_c3_t0              9.43659e+07
p2_c3_t0              7.55217e+09
p3_c3_t0              1.47964e+09
diff6                           0
normdiff6                       0
z_c3_t1               1.42798e+10
p0_c3_t1              3.58111e+09
p1_c3_t1               9.6642e+07
p2_c3_t1              8.13115e+09
p3_c3_t1              2.47087e+09
diff7                           0
normdiff7                       0
z_c4_t0               7.97197e+09
p0_c4_t0              1.39755e+09
p1_c4_t0              1.06652e+08
p2_c4_t0              6.27793e+09
p3_c4_t0              1.89832e+08
diff8                           0
normdiff8                       0
z_c4_t1                8.9819e+09
p0_c4_t1              1.44499e+09
p1_c4_t1              9.81883e+07
p2_c4_t1              6.72743e+09
p3_c4_t1                7.113e+08
diff9                           0
normdiff9                       0
z_c5_t0               1.00642e+10
p0_c5_t0              2.44014e+09
p1_c5_t0              8.90991e+07
p2_c5_t0               7.4559e+09
p3_c5_t0               7.9021e+07
diff10                          0
normdiff10                      0
z_c5_t1                1.2016e+10
p0_c5_t1              1.80029e+09
p1_c5_t1              8.91374e+07
p2_c5_t1               8.9559e+09
p3_c5_t1              1.17068e+09
diff11                          0
normdiff11                      0
z_c6_t0               1.81204e+10
p0_c6_t0              4.41138e+09
p1_c6_t0              1.12562e+08
p2_c6_t0              1.32149e+10
p3_c6_t0              3.81481e+08
diff12                          0
normdiff12                      0
z_c6_t1               2.06345e+10
p0_c6_t1              4.79039e+09
p1_c6_t1              1.03172e+08
p2_c6_t1              1.51946e+10
p3_c6_t1              5.46356e+08
diff13                          0
normdiff13                      0
